cluster_editing/exact/simple_reductions/graphs/exact141.gr.metis
250 1450
4 5 8 9 10 12 14 15 16 17 18 21 23 24 25 126 127 128 129 131 132 134 136 137 138 140 141 142 143 144 147 148 149 150 205 209 210 214 215 216 237 
3 13 23 
2 10 23 
1 5 7 10 11 15 16 18 21 23 24 126 145 150 209 221 
1 4 8 9 12 14 15 16 126 131 134 137 138 140 143 150 
13 
4 11 12 16 18 23 24 25 130 131 132 142 143 145 149 150 
1 5 9 12 15 16 126 131 134 137 138 140 141 147 148 214 229 234 245 248 
1 5 8 12 14 15 16 17 126 131 134 137 140 141 210 214 215 239 
1 3 4 13 16 18 21 23 24 150 249 
4 7 150 
1 5 7 8 9 14 15 16 17 18 19 24 25 126 128 131 132 134 137 138 140 141 148 150 208 210 211 214 233 237 239 245 
2 6 10 136 
1 5 9 12 15 17 131 134 137 138 140 141 144 149 150 
1 4 5 8 9 12 14 16 17 18 23 24 25 126 128 129 131 132 134 135 137 138 140 141 143 144 145 147 148 149 150 210 211 214 215 237 
1 4 5 7 8 9 10 12 15 17 18 23 24 25 126 128 131 132 134 135 137 140 141 146 148 150 210 211 214 215 221 223 
1 9 12 14 15 16 126 134 137 140 141 144 210 211 
1 4 7 10 12 15 16 24 25 132 137 140 142 143 144 149 150 215 
12 

1 4 10 132 144 149 

1 2 3 4 7 10 15 16 24 132 140 150 
1 4 7 10 12 15 16 18 23 25 132 142 143 150 
1 7 12 15 16 18 24 131 132 136 137 140 143 146 149 150 
44 
33 35 37 39 42 43 49 
29 31 45 46 47 
28 31 35 45 46 47 

28 29 35 44 45 46 47 49 
44 
27 34 35 36 37 38 39 41 42 43 44 49 50 
33 36 37 38 41 42 43 44 49 
27 29 31 33 37 44 45 49 50 
33 34 37 38 41 42 43 
27 33 34 35 36 38 39 41 42 43 44 49 50 
33 34 36 37 41 42 43 44 49 
27 33 37 42 43 49 

33 34 36 37 38 42 43 49 
27 33 34 36 37 38 39 41 43 44 49 
27 33 34 36 37 38 39 41 42 49 
26 31 32 33 34 35 37 38 42 47 48 49 50 
28 29 31 35 46 47 
28 29 31 45 49 
28 29 31 44 45 
44 
27 31 33 34 35 37 38 39 41 42 43 44 46 
33 35 37 44 
52 53 55 56 57 58 60 62 65 66 70 72 
51 53 54 55 57 58 59 60 62 63 65 66 68 69 70 71 72 73 74 75 
51 52 55 56 57 60 62 64 65 66 68 70 72 
52 57 58 59 60 61 63 66 68 69 70 71 72 73 74 75 
51 52 53 56 62 64 65 66 70 72 
51 53 55 66 72 
51 52 53 54 58 59 60 61 62 63 64 65 66 68 69 70 71 72 73 74 75 
51 52 54 57 59 60 61 63 66 67 68 69 70 71 72 73 74 75 
52 54 57 58 60 61 63 66 67 68 69 70 71 72 73 74 75 
51 52 53 54 57 58 59 61 62 63 64 65 66 67 68 69 70 71 72 73 74 75 
54 57 58 59 60 63 67 70 71 72 73 74 75 
51 52 53 55 57 60 64 65 66 68 70 72 
52 54 57 58 59 60 61 66 67 68 69 70 71 72 73 74 75 
53 55 57 60 62 65 68 70 72 
51 52 53 55 57 60 62 64 66 68 70 72 
51 52 53 54 55 56 57 58 59 60 62 63 65 68 69 70 71 72 73 75 
58 59 60 61 63 71 73 74 75 
52 53 54 57 58 59 60 62 63 64 65 66 70 71 72 73 75 
52 54 57 58 59 60 63 66 70 71 72 73 74 75 
51 52 53 54 55 57 58 59 60 61 62 63 64 65 66 68 69 71 72 73 74 75 
52 54 57 58 59 60 61 63 66 67 68 69 70 72 73 74 75 
51 52 53 54 55 56 57 58 59 60 61 62 63 64 65 66 68 69 70 71 73 74 75 
52 54 57 58 59 60 61 63 66 67 68 69 70 71 72 74 75 
52 54 57 58 59 60 61 63 67 69 70 71 72 73 75 109 112 
52 54 57 58 59 60 61 63 66 67 68 69 70 71 72 73 74 
79 80 82 84 88 89 90 91 95 98 99 

86 87 
76 80 81 82 84 99 
76 79 82 84 85 88 89 90 91 92 93 95 98 99 
79 96 97 
76 79 80 84 88 89 91 92 93 99 

76 79 80 82 85 88 89 90 91 92 93 95 98 99 
80 84 88 89 90 91 92 93 
78 96 
78 
76 80 82 84 85 89 90 91 92 93 95 99 
76 80 82 84 85 88 91 92 93 
76 80 84 85 88 91 95 99 
76 80 82 84 85 88 89 90 92 93 
80 82 84 85 88 89 91 93 
80 82 84 85 88 89 91 92 

76 80 84 88 90 
81 86 97 
81 96 
76 80 84 
76 79 80 82 84 88 90 100 
99 
102 107 109 111 112 113 115 116 117 120 123 124 125 167 
101 107 108 109 111 112 115 116 117 118 120 121 123 125 167 169 

108 109 112 119 
109 111 112 113 115 117 118 124 125 

101 102 108 109 111 112 113 114 115 116 117 118 119 120 121 123 124 125 
102 104 107 109 111 112 113 114 115 116 117 118 119 121 123 124 125 158 
74 101 102 104 105 107 108 111 112 113 114 115 116 117 118 119 120 121 123 124 125 

101 102 105 107 108 109 112 113 114 115 116 117 118 119 123 124 125 
74 101 102 104 105 107 108 109 111 113 114 115 116 117 118 119 120 121 123 124 125 
101 105 107 108 109 111 112 114 116 117 118 119 123 124 125 
107 108 109 111 112 113 116 117 118 119 120 123 124 125 
101 102 105 107 108 109 111 112 116 117 118 121 123 125 153 160 
101 102 107 108 109 111 112 113 114 115 117 118 119 120 121 123 124 125 
101 102 105 107 108 109 111 112 113 114 115 116 118 119 120 121 123 124 125 
102 105 107 108 109 111 112 113 114 115 116 117 119 121 123 124 125 158 
104 107 108 109 111 112 113 114 116 117 118 123 124 125 
101 102 107 109 112 114 116 117 123 125 
102 107 108 109 112 115 116 117 118 123 125 

101 102 107 108 109 111 112 113 114 115 116 117 118 119 120 121 124 125 
101 105 107 108 109 111 112 113 114 116 117 118 119 123 125 
101 102 105 107 108 109 111 112 113 114 115 116 117 118 119 120 121 123 124 
1 4 5 8 9 12 15 16 17 128 129 131 132 134 135 137 138 140 141 143 144 145 146 147 148 149 150 210 233 237 239 
1 129 131 137 140 141 150 
1 12 15 16 126 129 131 134 137 140 141 144 148 150 
1 15 126 127 128 131 132 133 134 136 137 138 140 141 142 143 144 145 146 147 149 150 
7 132 143 145 149 150 
1 5 7 8 9 12 14 15 16 25 126 127 128 129 132 134 135 137 138 140 141 142 143 144 145 146 147 148 149 150 226 228 229 230 233 234 237 238 239 243 245 250 
1 7 12 15 16 18 21 23 24 25 126 129 130 131 134 136 137 139 140 141 142 143 144 145 146 150 228 237 
129 142 145 150 
1 5 8 9 12 14 15 16 17 126 128 129 131 132 137 138 140 141 142 143 146 147 148 150 227 228 231 234 237 239 245 
15 16 126 131 137 138 140 141 144 147 150 210 
1 13 25 129 132 140 142 143 145 146 150 
1 5 8 9 12 14 15 16 17 18 25 126 127 128 129 131 132 134 135 138 140 141 142 143 144 145 146 147 148 149 150 210 214 226 227 228 229 230 234 237 238 239 243 245 248 250 
1 5 8 12 14 15 126 129 131 134 135 137 140 141 147 148 150 214 226 227 234 243 245 
132 150 
1 5 8 9 12 14 15 16 17 18 23 25 126 127 128 129 131 132 134 135 136 137 138 141 142 143 144 145 146 147 148 149 150 210 211 214 215 228 230 234 237 239 243 245 
1 8 9 12 14 15 16 17 126 127 128 129 131 132 134 135 137 138 140 144 147 148 150 214 226 227 230 234 237 239 243 245 248 
1 7 18 24 129 131 132 133 134 136 137 140 143 144 145 149 150 
1 5 7 15 18 24 25 126 129 130 131 132 134 136 137 140 142 145 146 149 150 245 
1 14 15 17 18 21 126 128 129 131 132 135 137 140 141 142 145 148 149 150 
4 7 15 126 129 130 131 132 133 136 137 140 142 143 144 146 149 150 
16 25 126 129 131 132 134 136 137 140 143 145 148 149 150 
1 8 15 126 129 131 134 135 137 138 140 141 148 150 214 226 227 234 245 250 
1 8 12 15 16 126 128 131 134 137 138 140 141 144 146 147 150 227 237 239 248 
1 7 14 15 18 21 25 126 129 130 131 137 140 142 143 144 145 146 150 
1 4 5 7 10 11 12 14 15 16 18 23 24 25 126 127 128 129 130 131 132 133 134 135 136 137 138 139 140 141 142 143 144 145 146 147 148 149 245 247 249 
154 155 156 157 159 161 163 165 168 172 173 
153 157 158 160 161 163 164 165 
115 152 155 158 160 161 163 164 165 166 167 169 170 171 172 
151 155 
151 153 154 156 157 158 160 161 164 165 
151 155 157 162 168 173 
151 152 155 156 158 162 173 174 
108 118 152 153 155 157 160 161 163 164 165 166 167 169 170 171 172 
151 161 162 163 165 168 172 173 
115 152 153 155 158 161 163 164 165 166 167 169 170 171 172 
151 152 153 155 158 159 160 163 164 165 172 
156 157 159 173 174 
151 152 153 158 159 160 161 164 165 166 167 171 172 
152 153 155 158 160 161 163 165 166 167 169 170 171 172 
151 152 153 155 158 159 160 161 163 164 170 171 172 
153 158 160 163 164 
101 102 153 158 160 163 164 169 171 
151 156 159 173 
102 153 158 160 164 167 171 
153 158 160 164 165 
153 158 160 163 164 165 167 169 
151 153 158 159 160 161 163 164 165 
151 156 157 159 162 168 
157 162 

177 178 179 180 181 183 187 188 190 191 193 194 196 197 198 199 
176 178 179 180 181 183 187 190 193 194 196 197 198 199 
176 177 179 180 181 182 183 187 188 190 193 194 195 196 197 198 199 
176 177 178 183 187 188 190 191 194 198 199 
176 177 178 181 185 186 187 188 189 190 196 197 198 199 
176 177 178 180 185 186 187 188 189 190 191 192 197 198 199 
178 196 
176 177 178 179 187 188 190 191 198 199 
194 196 200 
180 181 186 187 189 190 192 197 198 
180 181 185 187 189 190 197 198 
176 177 178 179 180 181 183 185 186 188 189 190 191 194 196 197 198 199 
176 178 179 180 181 183 187 190 191 197 198 
180 181 185 186 187 190 192 197 198 
176 177 178 179 180 181 183 185 186 187 188 189 191 192 197 198 199 
176 179 181 183 187 188 190 199 
181 185 189 190 197 198 
176 177 178 196 199 
176 177 178 179 184 187 196 
178 
176 177 178 180 182 184 187 193 194 199 
176 177 178 180 181 185 186 187 188 189 190 192 198 199 
176 177 178 179 180 181 183 185 186 187 188 189 190 192 197 199 
176 177 178 179 180 181 183 187 190 191 193 196 197 198 
184 
204 217 
203 209 210 211 212 223 
202 210 223 
201 
1 213 215 

209 217 
12 210 211 213 214 
1 4 202 207 210 212 214 221 
1 9 12 15 16 17 126 135 137 140 202 203 208 209 211 213 214 215 221 223 225 
12 15 16 17 140 202 208 210 213 214 221 
202 209 217 
205 208 210 211 214 215 220 
1 8 9 12 15 16 137 138 140 141 147 208 209 210 211 213 215 216 220 221 225 
1 9 15 16 18 140 205 210 213 214 216 221 222 225 
1 214 215 
201 207 212 
219 
218 222 
213 214 225 
4 16 209 210 211 214 215 
215 219 
16 202 203 210 

210 214 215 220 
131 137 138 141 147 227 228 229 230 231 233 234 236 237 238 239 241 242 243 245 248 249 250 
134 137 138 141 147 148 226 228 229 230 234 237 238 239 242 243 245 248 250 
131 132 134 137 140 226 227 230 231 233 234 237 238 239 243 245 249 
8 131 137 226 227 230 234 237 238 239 243 245 248 250 
131 137 140 141 226 227 228 229 231 233 234 237 238 239 243 245 247 248 250 
134 226 228 230 234 235 237 239 245 246 247 248 250 
237 247 250 
12 126 131 226 228 230 234 237 238 239 243 245 249 
8 131 134 137 138 140 141 147 226 227 228 229 230 231 233 237 238 239 243 245 247 248 249 250 
231 237 238 239 241 242 246 249 
226 237 246 250 
1 12 15 126 131 132 134 137 140 141 148 226 227 228 229 230 231 232 233 234 235 236 238 239 240 241 242 243 245 246 247 248 249 250 
131 137 226 227 228 229 230 233 234 235 237 239 241 242 243 245 246 247 249 
9 12 126 131 134 137 140 141 148 226 227 228 229 230 231 233 234 235 237 238 240 241 242 243 245 246 248 250 
237 239 243 248 
226 235 237 238 239 242 249 
226 227 235 237 238 239 241 248 
131 137 138 140 141 226 227 228 229 230 233 234 237 238 239 240 245 247 248 250 

8 12 131 134 137 138 140 141 143 147 150 226 227 228 229 230 231 233 234 237 238 239 243 247 248 249 250 
231 235 236 237 238 239 
150 230 231 232 234 237 238 243 245 249 250 
8 137 141 148 226 227 229 230 231 234 237 239 240 242 243 245 250 
10 150 226 228 233 234 235 237 238 241 245 247 
131 137 147 226 227 229 230 231 232 234 236 237 239 243 245 247 248 
