instances/exact/exact141.gr
p cep 250 1450
1 4
1 5
1 8
1 9
1 10
1 12
1 14
1 15
1 16
1 17
1 18
1 21
1 23
1 24
1 25
1 126
1 127
1 128
1 129
1 131
1 132
1 134
1 136
1 137
1 138
1 140
1 141
1 142
1 143
1 144
1 147
1 148
1 149
1 150
1 205
1 209
1 210
1 214
1 215
1 216
1 237
2 3
2 13
2 23
3 10
3 23
4 5
4 7
4 10
4 11
4 15
4 16
4 18
4 21
4 23
4 24
4 126
4 145
4 150
4 209
4 221
5 8
5 9
5 12
5 14
5 15
5 16
5 126
5 131
5 134
5 137
5 138
5 140
5 143
5 150
6 13
7 11
7 12
7 16
7 18
7 23
7 24
7 25
7 130
7 131
7 132
7 142
7 143
7 145
7 149
7 150
8 9
8 12
8 15
8 16
8 126
8 131
8 134
8 137
8 138
8 140
8 141
8 147
8 148
8 214
8 229
8 234
8 245
8 248
9 12
9 14
9 15
9 16
9 17
9 126
9 131
9 134
9 137
9 140
9 141
9 210
9 214
9 215
9 239
10 13
10 16
10 18
10 21
10 23
10 24
10 150
10 249
11 150
12 14
12 15
12 16
12 17
12 18
12 19
12 24
12 25
12 126
12 128
12 131
12 132
12 134
12 137
12 138
12 140
12 141
12 148
12 150
12 208
12 210
12 211
12 214
12 233
12 237
12 239
12 245
13 136
14 15
14 17
14 131
14 134
14 137
14 138
14 140
14 141
14 144
14 149
14 150
15 16
15 17
15 18
15 23
15 24
15 25
15 126
15 128
15 129
15 131
15 132
15 134
15 135
15 137
15 138
15 140
15 141
15 143
15 144
15 145
15 147
15 148
15 149
15 150
15 210
15 211
15 214
15 215
15 237
16 17
16 18
16 23
16 24
16 25
16 126
16 128
16 131
16 132
16 134
16 135
16 137
16 140
16 141
16 146
16 148
16 150
16 210
16 211
16 214
16 215
16 221
16 223
17 126
17 134
17 137
17 140
17 141
17 144
17 210
17 211
18 24
18 25
18 132
18 137
18 140
18 142
18 143
18 144
18 149
18 150
18 215
21 132
21 144
21 149
23 24
23 132
23 140
23 150
24 25
24 132
24 142
24 143
24 150
25 131
25 132
25 136
25 137
25 140
25 143
25 146
25 149
25 150
26 44
27 33
27 35
27 37
27 39
27 42
27 43
27 49
28 29
28 31
28 45
28 46
28 47
29 31
29 35
29 45
29 46
29 47
31 35
31 44
31 45
31 46
31 47
31 49
32 44
33 34
33 35
33 36
33 37
33 38
33 39
33 41
33 42
33 43
33 44
33 49
33 50
34 36
34 37
34 38
34 41
34 42
34 43
34 44
34 49
35 37
35 44
35 45
35 49
35 50
36 37
36 38
36 41
36 42
36 43
37 38
37 39
37 41
37 42
37 43
37 44
37 49
37 50
38 41
38 42
38 43
38 44
38 49
39 42
39 43
39 49
41 42
41 43
41 49
42 43
42 44
42 49
43 49
44 47
44 48
44 49
44 50
45 46
45 47
46 49
51 52
51 53
51 55
51 56
51 57
51 58
51 60
51 62
51 65
51 66
51 70
51 72
52 53
52 54
52 55
52 57
52 58
52 59
52 60
52 62
52 63
52 65
52 66
52 68
52 69
52 70
52 71
52 72
52 73
52 74
52 75
53 55
53 56
53 57
53 60
53 62
53 64
53 65
53 66
53 68
53 70
53 72
54 57
54 58
54 59
54 60
54 61
54 63
54 66
54 68
54 69
54 70
54 71
54 72
54 73
54 74
54 75
55 56
55 62
55 64
55 65
55 66
55 70
55 72
56 66
56 72
57 58
57 59
57 60
57 61
57 62
57 63
57 64
57 65
57 66
57 68
57 69
57 70
57 71
57 72
57 73
57 74
57 75
58 59
58 60
58 61
58 63
58 66
58 67
58 68
58 69
58 70
58 71
58 72
58 73
58 74
58 75
59 60
59 61
59 63
59 66
59 67
59 68
59 69
59 70
59 71
59 72
59 73
59 74
59 75
60 61
60 62
60 63
60 64
60 65
60 66
60 67
60 68
60 69
60 70
60 71
60 72
60 73
60 74
60 75
61 63
61 67
61 70
61 71
61 72
61 73
61 74
61 75
62 64
62 65
62 66
62 68
62 70
62 72
63 66
63 67
63 68
63 69
63 70
63 71
63 72
63 73
63 74
63 75
64 65
64 68
64 70
64 72
65 66
65 68
65 70
65 72
66 68
66 69
66 70
66 71
66 72
66 73
66 75
67 71
67 73
67 74
67 75
68 70
68 71
68 72
68 73
68 75
69 70
69 71
69 72
69 73
69 74
69 75
70 71
70 72
70 73
70 74
70 75
71 72
71 73
71 74
71 75
72 73
72 74
72 75
73 74
73 75
74 75
74 109
74 112
76 79
76 80
76 82
76 84
76 88
76 89
76 90
76 91
76 95
76 98
76 99
78 86
78 87
79 80
79 81
79 82
79 84
79 99
80 82
80 84
80 85
80 88
80 89
80 90
80 91
80 92
80 93
80 95
80 98
80 99
81 96
81 97
82 84
82 88
82 89
82 91
82 92
82 93
82 99
84 85
84 88
84 89
84 90
84 91
84 92
84 93
84 95
84 98
84 99
85 88
85 89
85 90
85 91
85 92
85 93
86 96
88 89
88 90
88 91
88 92
88 93
88 95
88 99
89 91
89 92
89 93
90 91
90 95
90 99
91 92
91 93
92 93
96 97
99 100
101 102
101 107
101 109
101 111
101 112
101 113
101 115
101 116
101 117
101 120
101 123
101 124
101 125
101 167
102 107
102 108
102 109
102 111
102 112
102 115
102 116
102 117
102 118
102 120
102 121
102 123
102 125
102 167
102 169
104 108
104 109
104 112
104 119
105 109
105 111
105 112
105 113
105 115
105 117
105 118
105 124
105 125
107 108
107 109
107 111
107 112
107 113
107 114
107 115
107 116
107 117
107 118
107 119
107 120
107 121
107 123
107 124
107 125
108 109
108 111
108 112
108 113
108 114
108 115
108 116
108 117
108 118
108 119
108 121
108 123
108 124
108 125
108 158
109 111
109 112
109 113
109 114
109 115
109 116
109 117
109 118
109 119
109 120
109 121
109 123
109 124
109 125
111 112
111 113
111 114
111 115
111 116
111 117
111 118
111 119
111 123
111 124
111 125
112 113
112 114
112 115
112 116
112 117
112 118
112 119
112 120
112 121
112 123
112 124
112 125
113 114
113 116
113 117
113 118
113 119
113 123
113 124
113 125
114 116
114 117
114 118
114 119
114 120
114 123
114 124
114 125
115 116
115 117
115 118
115 121
115 123
115 125
115 153
115 160
116 117
116 118
116 119
116 120
116 121
116 123
116 124
116 125
117 118
117 119
117 120
117 121
117 123
117 124
117 125
118 119
118 121
118 123
118 124
118 125
118 158
119 123
119 124
119 125
120 123
120 125
121 123
121 125
123 124
123 125
124 125
126 128
126 129
126 131
126 132
126 134
126 135
126 137
126 138
126 140
126 141
126 143
126 144
126 145
126 146
126 147
126 148
126 149
126 150
126 210
126 233
126 237
126 239
127 129
127 131
127 137
127 140
127 141
127 150
128 129
128 131
128 134
128 137
128 140
128 141
128 144
128 148
128 150
129 131
129 132
129 133
129 134
129 136
129 137
129 138
129 140
129 141
129 142
129 143
129 144
129 145
129 146
129 147
129 149
129 150
130 132
130 143
130 145
130 149
130 150
131 132
131 134
131 135
131 137
131 138
131 140
131 141
131 142
131 143
131 144
131 145
131 146
131 147
131 148
131 149
131 150
131 226
131 228
131 229
131 230
131 233
131 234
131 237
131 238
131 239
131 243
131 245
131 250
132 134
132 136
132 137
132 139
132 140
132 141
132 142
132 143
132 144
132 145
132 146
132 150
132 228
132 237
133 142
133 145
133 150
134 137
134 138
134 140
134 141
134 142
134 143
134 146
134 147
134 148
134 150
134 227
134 228
134 231
134 234
134 237
134 239
134 245
135 137
135 138
135 140
135 141
135 144
135 147
135 150
135 210
136 140
136 142
136 143
136 145
136 146
136 150
137 138
137 140
137 141
137 142
137 143
137 144
137 145
137 146
137 147
137 148
137 149
137 150
137 210
137 214
137 226
137 227
137 228
137 229
137 230
137 234
137 237
137 238
137 239
137 243
137 245
137 248
137 250
138 140
138 141
138 147
138 148
138 150
138 214
138 226
138 227
138 234
138 243
138 245
139 150
140 141
140 142
140 143
140 144
140 145
140 146
140 147
140 148
140 149
140 150
140 210
140 211
140 214
140 215
140 228
140 230
140 234
140 237
140 239
140 243
140 245
141 144
141 147
141 148
141 150
141 214
141 226
141 227
141 230
141 234
141 237
141 239
141 243
141 245
141 248
142 143
142 144
142 145
142 149
142 150
143 145
143 146
143 149
143 150
143 245
144 145
144 148
144 149
144 150
145 146
145 149
145 150
146 148
146 149
146 150
147 148
147 150
147 214
147 226
147 227
147 234
147 245
147 250
148 150
148 227
148 237
148 239
148 248
149 150
150 245
150 247
150 249
151 154
151 155
151 156
151 157
151 159
151 161
151 163
151 165
151 168
151 172
151 173
152 153
152 157
152 158
152 160
152 161
152 163
152 164
152 165
153 155
153 158
153 160
153 161
153 163
153 164
153 165
153 166
153 167
153 169
153 170
153 171
153 172
154 155
155 156
155 157
155 158
155 160
155 161
155 164
155 165
156 157
156 162
156 168
156 173
157 158
157 162
157 173
157 174
158 160
158 161
158 163
158 164
158 165
158 166
158 167
158 169
158 170
158 171
158 172
159 161
159 162
159 163
159 165
159 168
159 172
159 173
160 161
160 163
160 164
160 165
160 166
160 167
160 169
160 170
160 171
160 172
161 163
161 164
161 165
161 172
162 173
162 174
163 164
163 165
163 166
163 167
163 171
163 172
164 165
164 166
164 167
164 169
164 170
164 171
164 172
165 170
165 171
165 172
167 169
167 171
168 173
169 171
176 177
176 178
176 179
176 180
176 181
176 183
176 187
176 188
176 190
176 191
176 193
176 194
176 196
176 197
176 198
176 199
177 178
177 179
177 180
177 181
177 183
177 187
177 190
177 193
177 194
177 196
177 197
177 198
177 199
178 179
178 180
178 181
178 182
178 183
178 187
178 188
178 190
178 193
178 194
178 195
178 196
178 197
178 198
178 199
179 183
179 187
179 188
179 190
179 191
179 194
179 198
179 199
180 181
180 185
180 186
180 187
180 188
180 189
180 190
180 196
180 197
180 198
180 199
181 185
181 186
181 187
181 188
181 189
181 190
181 191
181 192
181 197
181 198
181 199
182 196
183 187
183 188
183 190
183 191
183 198
183 199
184 194
184 196
184 200
185 186
185 187
185 189
185 190
185 192
185 197
185 198
186 187
186 189
186 190
186 197
186 198
187 188
187 189
187 190
187 191
187 194
187 196
187 197
187 198
187 199
188 190
188 191
188 197
188 198
189 190
189 192
189 197
189 198
190 191
190 192
190 197
190 198
190 199
191 199
192 197
192 198
193 196
193 199
194 196
196 199
197 198
197 199
198 199
201 204
201 217
202 203
202 209
202 210
202 211
202 212
202 223
203 210
203 223
205 213
205 215
207 209
207 217
208 210
208 211
208 213
208 214
209 210
209 212
209 214
209 221
210 211
210 213
210 214
210 215
210 221
210 223
210 225
211 213
211 214
211 221
212 217
213 214
213 215
213 220
214 215
214 216
214 220
214 221
214 225
215 216
215 221
215 222
215 225
218 219
219 222
220 225
226 227
226 228
226 229
226 230
226 231
226 233
226 234
226 236
226 237
226 238
226 239
226 241
226 242
226 243
226 245
226 248
226 249
226 250
227 228
227 229
227 230
227 234
227 237
227 238
227 239
227 242
227 243
227 245
227 248
227 250
228 230
228 231
228 233
228 234
228 237
228 238
228 239
228 243
228 245
228 249
229 230
229 234
229 237
229 238
229 239
229 243
229 245
229 248
229 250
230 231
230 233
230 234
230 237
230 238
230 239
230 243
230 245
230 247
230 248
230 250
231 234
231 235
231 237
231 239
231 245
231 246
231 247
231 248
231 250
232 237
232 247
232 250
233 234
233 237
233 238
233 239
233 243
233 245
233 249
234 237
234 238
234 239
234 243
234 245
234 247
234 248
234 249
234 250
235 237
235 238
235 239
235 241
235 242
235 246
235 249
236 237
236 246
236 250
237 238
237 239
237 240
237 241
237 242
237 243
237 245
237 246
237 247
237 248
237 249
237 250
238 239
238 241
238 242
238 243
238 245
238 246
238 247
238 249
239 240
239 241
239 242
239 243
239 245
239 246
239 248
239 250
240 243
240 248
241 242
241 249
242 248
243 245
243 247
243 248
243 250
245 247
245 248
245 249
245 250
247 249
247 250
248 250
